Solver command line: ['C:\\gurobi911\\win64\\bin\\gurobi.bat']

Academic license - for non-commercial use only - expires 2021-03-22

Using license file C:\Users\Dell\gurobi.lic

Read LP format model from file C:\Users\Dell\AppData\Local\Temp\tmp42aq6nja.pyomo.lp

Reading time = 0.55 seconds

x105127: 105125 rows, 70087 columns, 276094 nonzeros

Read MIP start from file C:\Users\Dell\AppData\Local\Temp\tmpk61e3a18.gurobi.mst

Changed value of parameter timelimit to 50000.0

   Prev: inf  Min: 0.0  Max: inf  Default: inf

Changed value of parameter mipgap to 0.005

   Prev: 0.0001  Min: 0.0  Max: inf  Default: 0.0001

Gurobi Optimizer version 9.1.1 build v9.1.1rc0 (win64)

Thread count: 6 physical cores, 12 logical processors, using up to 12 threads

Optimize a model with 105125 rows, 70087 columns and 276094 nonzeros

Model fingerprint: 0xbf7e4b50

Variable types: 52565 continuous, 17522 integer (0 binary)

Coefficient statistics:

  Matrix range     [1e-03, 1e+02]

  Objective range  [1e+00, 5e+04]

  Bounds range     [2e+00, 1e+03]

  RHS range        [1e+00, 6e+02]



Warning: Completing partial solution with 17520 unfixed non-continuous variables out of 17522

User MIP start produced solution with objective 1.05645e+06 (22.54s)

User MIP start produced solution with objective 639290 (26.39s)

User MIP start produced solution with objective 638959 (47.75s)

User MIP start produced solution with objective 638951 (85.64s)

User MIP start produced solution with objective 635812 (101.88s)

User MIP start produced solution with objective 635788 (123.86s)

Loaded user MIP start with objective 635788

Processed MIP start in 129.88 seconds



Presolve removed 5 rows and 8295 columns

Presolve time: 0.24s

Presolved: 105120 rows, 61792 columns, 267797 nonzeros

Variable types: 44270 continuous, 17522 integer (0 binary)



Deterministic concurrent LP optimizer: primal and dual simplex (primal and dual model)

Showing first log only...



Presolve removed 35040 rows and 17989 columns

Presolved: 70080 rows, 43803 columns, 197248 nonzeros





Root simplex log...



Iteration    Objective       Primal Inf.    Dual Inf.      Time

       0    4.5553536e+05   6.777164e+03   1.420651e+09    131s

   15308    8.5405243e+05   0.000000e+00   1.935503e+06    135s

   17854    6.4999253e+05   0.000000e+00   1.633021e+05    140s

   20548    6.2371067e+05   0.000000e+00   1.343541e+05    145s

   22674    6.0500554e+05   0.000000e+00   1.688498e+05    150s

   24496    5.9484424e+05   0.000000e+00   1.219828e+05    155s

   26324    5.8778281e+05   0.000000e+00   1.145273e+05    160s

   27790    5.8239271e+05   0.000000e+00   7.636065e+04    165s

   29006    5.7865669e+05   0.000000e+00   8.723659e+04    171s

   30070    5.7703973e+05   0.000000e+00   3.824296e+05    175s

   31134    5.7598798e+05   0.000000e+00   1.066198e+04    180s

   32198    5.7499279e+05   0.000000e+00   4.775625e+03    186s

   32754    5.7453624e+05   0.000000e+00   6.548258e+03    190s

   33332    5.7404382e+05   0.000000e+00   0.000000e+00    194s

   33332    5.7404382e+05   0.000000e+00   0.000000e+00    194s

Concurrent spin time: 16.77s



Solved with primal simplex (primal model)



Root relaxation: objective 5.740438e+05, 33332 iterations, 80.69 seconds

Total elapsed time = 220.92s



    Nodes    |    Current Node    |     Objective Bounds      |     Work

 Expl Unexpl |  Obj  Depth IntInf | Incumbent    BestBd   Gap | It/Node Time



     0     0 574043.815    0 3995 635788.158 574043.815  9.71%     -  224s

     0     0 574043.815    0 4118 635788.158 574043.815  9.71%     -  241s

H    0     0                    585798.99833 574043.815  2.01%     -  259s

     0     0 575373.000    0 3723 585798.998 575373.000  1.78%     -  294s

     0     0 576122.064    0 3720 585798.998 576122.064  1.65%     -  324s

     0     0 576122.562    0 3716 585798.998 576122.562  1.65%     -  324s

     0     0 576131.738    0 3717 585798.998 576131.738  1.65%     -  324s

     0     0 576140.915    0 3717 585798.998 576140.915  1.65%     -  325s

     0     0 576141.047    0 3718 585798.998 576141.047  1.65%     -  325s

     0     0 577693.822    0 6962 585798.998 577693.822  1.38%     -  348s

     0     0 577960.635    0 3854 585798.998 577960.635  1.34%     -  378s

     0     0 577979.400    0 3816 585798.998 577979.400  1.33%     -  380s

     0     0 577986.913    0 3801 585798.998 577986.913  1.33%     -  381s

     0     0 577994.206    0 3775 585798.998 577994.206  1.33%     -  383s

     0     0 578001.857    0 3752 585798.998 578001.857  1.33%     -  384s

     0     0 578001.925    0 3753 585798.998 578001.925  1.33%     -  384s

     0     0 578239.174    0 3609 585798.998 578239.174  1.29%     -  393s

     0     0 578248.299    0 3648 585798.998 578248.299  1.29%     -  396s

     0     0 578256.646    0 3653 585798.998 578256.646  1.29%     -  396s

     0     0 578267.186    0 3650 585798.998 578267.186  1.29%     -  397s

     0     0 578269.352    0 3648 585798.998 578269.352  1.29%     -  398s

     0     0 578277.200    0 3647 585798.998 578277.200  1.28%     -  398s

     0     0 578286.013    0 3648 585798.998 578286.013  1.28%     -  399s

     0     0 578286.280    0 3651 585798.998 578286.280  1.28%     -  399s

     0     0 578303.306    0 3663 585798.998 578303.306  1.28%     -  402s

     0     0 578304.876    0 3675 585798.998 578304.876  1.28%     -  403s

     0     0 578313.324    0 3667 585798.998 578313.324  1.28%     -  403s

     0     0 578320.810    0 3667 585798.998 578320.810  1.28%     -  404s

     0     0 578328.068    0 3669 585798.998 578328.068  1.28%     -  405s

     0     0 578337.170    0 3663 585798.998 578337.170  1.27%     -  405s

     0     0 578344.342    0 3663 585798.998 578344.342  1.27%     -  406s

     0     0 578344.362    0 3665 585798.998 578344.362  1.27%     -  406s

     0     0 578354.572    0 3670 585798.998 578354.572  1.27%     -  407s

     0     0 578363.483    0 3675 585798.998 578363.483  1.27%     -  408s

     0     0 578366.863    0 3672 585798.998 578366.863  1.27%     -  409s

     0     0 578374.894    0 3676 585798.998 578374.894  1.27%     -  410s

     0     0 578378.155    0 3671 585798.998 578378.155  1.27%     -  411s

     0     0 578385.580    0 3664 585798.998 578385.580  1.27%     -  411s

     0     0 578387.049    0 3664 585798.998 578387.049  1.27%     -  412s

     0     0 578390.665    0 3672 585798.998 578390.665  1.26%     -  414s

H    0     0                    585283.97316 578390.665  1.18%     -  433s

     0     0 578398.463    0 3674 585283.973 578398.463  1.18%     -  434s

     0     0 578406.004    0 3672 585283.973 578406.004  1.18%     -  434s

     0     0 578406.081    0 3673 585283.973 578406.081  1.18%     -  435s

     0     0 578415.801    0 3675 585283.973 578415.801  1.17%     -  436s

     0     0 578417.997    0 3680 585283.973 578417.997  1.17%     -  436s

     0     0 578419.325    0 3680 585283.973 578419.325  1.17%     -  437s

     0     0 578428.450    0 3680 585283.973 578428.450  1.17%     -  439s

     0     0 578436.044    0 3680 585283.973 578436.044  1.17%     -  439s

     0     0 578436.278    0 3676 585283.973 578436.278  1.17%     -  440s

     0     0 578447.459    0 6539 585283.973 578447.459  1.17%     -  442s

     0     0 578448.125    0 3683 585283.973 578448.125  1.17%     -  443s

     0     0 578476.756    0 3661 585283.973 578476.756  1.16%     -  445s

     0     0 578483.604    0 3661 585283.973 578483.604  1.16%     -  445s

     0     0 578490.211    0 3663 585283.973 578490.211  1.16%     -  446s

     0     0 578490.670    0 3661 585283.973 578490.670  1.16%     -  446s

     0     0 578493.179    0 3676 585283.973 578493.179  1.16%     -  448s

     0     0 578493.189    0 3675 585283.973 578493.189  1.16%     -  448s

     0     0 578496.511    0 3672 585283.973 578496.511  1.16%     -  450s

     0     0 578496.511    0 3672 585283.973 578496.511  1.16%     -  452s

     0     2 578496.511    0 3672 585283.973 578496.511  1.16%     -  455s

     1     2     cutoff    1      585283.973 578496.826  1.16% 125478  719s



Cutting planes:

  Gomory: 8

  MIR: 12082



Explored 3 nodes (232774 simplex iterations) in 719.41 seconds

Thread count was 12 (of 12 available processors)



Solution count 8: 585284 585799 635788 ... 1.05645e+06



Optimal solution found (tolerance 5.00e-03)

Best objective 5.852839731587e+05, best bound 5.844867858478e+05, gap 0.1362%


